c instancia_08  vars=15  clausulas=25  k=2
p cnf 15 25
13 4 0
1 11 0
5 8 0
11 2 0
-6 -10 0
-5 11 0
-9 -10 0
-8 -2 0
11 -2 0
-14 -8 0
-14 -11 0
3 13 0
10 -2 0
13 7 0
-11 6 0
-7 -5 0
-9 -8 0
12 -1 0
-2 6 0
-14 4 0
-10 -15 0
10 1 0
6 7 0
-7 13 0
-4 11 0
